(declare-const term_to_project_onto Real)
(declare-const w Real)
(declare-const a.Top Int)
(declare-const term_to_project_onto2 Real)
(declare-const a.Top@pos Int)
(declare-const term_to_project_onto4 Real)
(declare-const a.Top@width Int)
(declare-const term_to_project_onto3 Real)
(declare-const term_to_project_onto0 Real)
(declare-const term_to_project_onto1 Real)
(assert (exists
         ((store?1 Int) (store?2 Int) (store?3 Int) (|w'?4| Real)
            (|k'?5| Int) (K?6 Int) (phi_w?7 Real) (phi_k?8 Int) (tr?9 Int)
            (|a.Top@width'?10| Int) (|a.Top@pos'?11| Int) (|j'?12| Int)
            (|a.Top'?13| Int) (|w'?14| Real) (|k'?15| Int) (k?16 Int)
            (j?17 Int) (i?18 Int) (n?19 Int))
         (and (<= (+ (- j?17) 1) 0) (<= (- i?18) 0) (<= (+ (- n?19) 1) 0)
                (<= (+ (- n?19) j?17) 0)
                (or (and (<= (- i?18) 0) (<= i?18 0)
                           (= (+ (- phi_k?8) k?16) 0)
                           (= (+ (- phi_w?7) tr?9) 0))
                      (and (or (<= (+ i?18 1) 0) (<= (+ (- i?18) 1) 0))
                             (= (+ (- |k'?5|) K?6) 0)
                             (or (and (= K?6 0) (= (+ (- |w'?4|) tr?9) 0)
                                        (= (- |k'?5|) 0))
                                   (and (<= (+ (- K?6) 1) 0)
                                          (<= (+ (- i?18) 1) 0)
                                          (<= (+ (- |k'?5|) 1) 0)
                                          (<= (+ |k'?5| (- i?18)) 0)))
                             (<= (- K?6) 0) (<= (- |k'?5|) 0)
                             (<= (+ (- i?18) 1) 0) (<= (+ (- |k'?5|) i?18) 0)
                             (= (+ |k'?5| (- phi_k?8)) 0)
                             (= (+ |w'?4| (- phi_w?7)) 0)))
                (= (+ (- store?1) |a.Top@width'?10|) 0)
                (= (+ (- store?2) |a.Top@pos'?11|) 0)
                (= (+ |w'?14| (- phi_w?7)) 0) (= (+ |k'?15| (- phi_k?8)) 0)
                (= (+ |j'?12| (- j?17) -1) 0)
                (= (+ (- store?3) |a.Top'?13|) 0)
                (= term_to_project_onto4 (+ |a.Top'?13| (- a.Top)))
                (= term_to_project_onto3 (+ |j'?12| (- j?17)))
                (= term_to_project_onto2 (+ |k'?15| (- k?16)))
                (= term_to_project_onto1 (+ |w'?14| (- w)))
                (= term_to_project_onto0 (+ |a.Top@pos'?11| (- a.Top@pos)))
                (= term_to_project_onto (+ |a.Top@width'?10| (- a.Top@width))))))
(check-sat)
